NAME : X-n586-k159
COMMENT : "Generated by Uchoa, Pecin, Pessoa, Poggi, Subramanian, and Vidal (2013)"
TYPE : CVRP
DIMENSION : 586
EDGE_WEIGHT_TYPE : EUC_2D
CAPACITY : 28
NODE_COORD_SECTION
1 18 761
2 835 397
3 299 16
4 31 168
5 142 257
6 242 984
7 612 357
8 663 812
9 105 188
10 487 636
11 993 703
12 672 148
13 506 259
14 953 706
15 888 203
16 107 534
17 772 692
18 475 182
19 828 775
20 719 220
21 655 722
22 844 197
23 918 600
24 460 844
25 739 102
26 301 523
27 341 627
28 989 936
29 935 602
30 44 72
31 861 67
32 163 416
33 981 503
34 722 397
35 317 903
36 547 95
37 944 106
38 935 192
39 128 376
40 908 176
41 720 226
42 738 793
43 791 498
44 712 751
45 530 693
46 141 673
47 380 544
48 634 301
49 427 853
50 606 949
51 47 557
52 48 202
53 791 67
54 546 876
55 526 842
56 535 216
57 828 214
58 829 352
59 623 473
60 374 1000
61 74 187
62 275 415
63 726 789
64 51 597
65 894 395
66 159 743
67 301 893
68 755 946
69 978 261
70 709 153
71 391 153
72 876 370
73 846 725
74 604 107
75 117 709
76 507 89
77 348 744
78 476 204
79 181 957
80 948 710
81 158 788
82 414 685
83 358 66
84 196 732
85 283 343
86 456 931
87 5 468
88 459 43
89 555 414
90 94 964
91 558 360
92 641 424
93 132 16
94 777 947
95 25 205
96 852 45
97 5 686
98 400 682
99 501 234
100 905 968
101 492 971
102 817 114
103 651 941
104 817 643
105 735 937
106 333 829
107 223 584
108 306 412
109 209 663
110 206 549
111 542 691
112 296 10
113 215 747
114 148 641
115 9 553
116 411 59
117 382 800
118 824 612
119 608 727
120 481 574
121 169 950
122 350 608
123 396 536
124 36 459
125 359 339
126 798 917
127 10 569
128 813 10
129 569 627
130 692 467
131 166 178
132 247 413
133 738 487
134 508 327
135 158 986
136 983 244
137 637 109
138 177 207
139 357 374
140 361 972
141 365 701
142 582 957
143 712 996
144 932 452
145 847 981
146 60 66
147 252 267
148 944 435
149 338 688
150 900 168
151 583 871
152 852 59
153 921 72
154 845 534
155 387 253
156 812 354
157 5 404
158 590 575
159 930 128
160 184 742
161 832 466
162 285 346
163 548 976
164 32 531
165 966 58
166 31 40
167 162 539
168 621 425
169 802 495
170 385 493
171 769 329
172 921 15
173 64 106
174 854 678
175 943 122
176 103 285
177 304 739
178 398 212
179 335 459
180 43 108
181 400 255
182 935 851
183 179 147
184 822 749
185 60 32
186 829 992
187 783 760
188 218 360
189 321 463
190 403 172
191 32 134
192 218 490
193 44 456
194 430 570
195 896 875
196 509 572
197 424 936
198 639 505
199 914 852
200 984 435
201 479 341
202 207 937
203 709 700
204 235 795
205 557 130
206 270 964
207 482 320
208 60 761
209 836 272
210 413 327
211 509 379
212 961 329
213 819 754
214 176 910
215 648 809
216 640 892
217 838 79
218 552 232
219 831 306
220 503 726
221 555 765
222 486 958
223 571 837
224 162 504
225 458 845
226 378 389
227 458 127
228 929 786
229 364 368
230 579 971
231 662 173
232 320 524
233 919 901
234 894 787
235 428 736
236 554 560
237 94 22
238 82 61
239 581 840
240 54 127
241 693 830
242 355 662
243 24 276
244 946 348
245 844 433
246 877 594
247 238 103
248 556 739
249 503 462
250 264 505
251 782 143
252 919 703
253 958 559
254 90 181
255 794 485
256 267 35
257 322 883
258 376 52
259 487 982
260 541 423
261 36 607
262 101 687
263 657 754
264 880 943
265 372 421
266 695 294
267 174 686
268 128 560
269 926 32
270 540 223
271 490 930
272 334 635
273 125 661
274 473 467
275 129 401
276 247 415
277 725 544
278 284 155
279 200 281
280 822 540
281 306 433
282 216 59
283 887 520
284 714 539
285 780 97
286 464 94
287 951 329
288 785 333
289 886 820
290 677 811
291 232 689
292 595 733
293 690 901
294 457 905
295 149 843
296 914 940
297 87 154
298 868 966
299 492 778
300 106 127
301 735 816
302 108 897
303 37 189
304 143 876
305 192 855
306 898 931
307 484 891
308 225 887
309 845 927
310 87 156
311 332 670
312 178 109
313 16 13
314 17 419
315 986 893
316 54 851
317 2 931
318 73 853
319 603 900
320 495 820
321 156 825
322 452 820
323 846 825
324 625 965
325 409 900
326 474 942
327 350 832
328 267 929
329 121 149
330 456 850
331 86 109
332 184 186
333 475 917
334 83 123
335 254 899
336 132 768
337 437 848
338 867 938
339 936 945
340 140 810
341 431 895
342 951 961
343 449 950
344 186 798
345 908 949
346 322 852
347 913 937
348 934 958
349 270 978
350 159 863
351 954 920
352 389 874
353 273 852
354 900 963
355 881 878
356 181 113
357 478 868
358 464 902
359 563 823
360 149 130
361 162 793
362 444 918
363 136 138
364 541 906
365 155 868
366 34 189
367 130 980
368 237 386
369 190 854
370 182 825
371 520 908
372 517 985
373 815 899
374 539 823
375 55 50
376 498 853
377 86 140
378 121 190
379 253 850
380 72 175
381 155 903
382 744 860
383 479 941
384 44 63
385 43 203
386 115 299
387 906 933
388 121 875
389 139 818
390 185 933
391 5 191
392 152 860
393 81 163
394 840 863
395 15 221
396 366 999
397 898 981
398 214 965
399 677 912
400 471 869
401 188 671
402 312 929
403 976 943
404 51 48
405 421 911
406 40 708
407 116 814
408 72 266
409 183 409
410 100 88
411 424 921
412 877 967
413 458 890
414 27 179
415 171 936
416 932 1000
417 455 869
418 463 837
419 846 959
420 435 847
421 353 670
422 187 752
423 464 978
424 145 830
425 126 826
426 137 85
427 128 303
428 59 408
429 319 870
430 887 957
431 240 175
432 473 816
433 132 885
434 138 202
435 406 825
436 388 728
437 78 745
438 181 842
439 287 734
440 173 850
441 144 150
442 181 611
443 105 862
444 261 116
445 444 964
446 367 966
447 188 819
448 7 136
449 947 934
450 127 532
451 408 873
452 808 928
453 430 951
454 109 846
455 94 257
456 33 885
457 170 97
458 7 126
459 916 902
460 432 821
461 181 936
462 887 864
463 494 876
464 128 179
465 464 900
466 493 815
467 229 847
468 322 943
469 343 786
470 143 863
471 153 220
472 135 147
473 321 964
474 895 939
475 88 881
476 128 913
477 201 898
478 912 951
479 105 265
480 32 133
481 428 946
482 21 156
483 47 175
484 70 772
485 459 932
486 165 773
487 907 938
488 146 938
489 76 832
490 34 140
491 900 958
492 215 989
493 444 821
494 963 961
495 914 869
496 102 310
497 126 686
498 819 967
499 282 720
500 113 780
501 3 828
502 148 924
503 58 878
504 421 731
505 513 812
506 497 906
507 177 909
508 227 897
509 96 713
510 437 876
511 91 807
512 789 981
513 139 857
514 996 910
515 90 87
516 578 807
517 833 865
518 171 858
519 138 750
520 899 754
521 100 148
522 195 895
523 67 143
524 843 872
525 203 473
526 480 960
527 258 899
528 127 344
529 471 906
530 461 949
531 437 847
532 921 944
533 465 817
534 951 979
535 102 191
536 84 185
537 377 879
538 901 927
539 660 782
540 171 812
541 35 216
542 119 848
543 484 921
544 74 67
545 440 953
546 110 175
547 617 832
548 61 876
549 138 815
550 617 787
551 501 842
552 390 969
553 107 781
554 92 163
555 211 853
556 59 73
557 913 979
558 387 735
559 846 908
560 121 746
561 419 942
562 128 998
563 517 952
564 922 942
565 485 904
566 586 955
567 40 118
568 461 891
569 474 852
570 234 798
571 138 137
572 132 126
573 101 147
574 131 189
575 112 842
576 509 895
577 144 868
578 481 981
579 854 903
580 160 987
581 98 917
582 78 766
583 422 862
584 81 228
585 842 959
586 148 846
PICKUP_AND_DELIVERY_SECTION
1 0 0 1000000000 0 0 0
2 0 0 1000000000 0 0 9
3 0 0 1000000000 0 0 7
4 0 0 1000000000 0 0 6
5 0 0 1000000000 0 0 5
6 0 0 1000000000 0 0 7
7 0 0 1000000000 0 0 10
8 0 0 1000000000 0 0 9
9 0 0 1000000000 0 0 8
10 0 0 1000000000 0 0 9
11 0 0 1000000000 0 8 0
12 0 0 1000000000 0 0 6
13 0 0 1000000000 0 0 6
14 0 0 1000000000 0 0 5
15 0 0 1000000000 0 0 10
16 0 0 1000000000 0 0 9
17 0 0 1000000000 0 0 7
18 0 0 1000000000 0 0 9
19 0 0 1000000000 0 0 7
20 0 0 1000000000 0 0 9
21 0 0 1000000000 0 6 0
22 0 0 1000000000 0 0 5
23 0 0 1000000000 0 0 7
24 0 0 1000000000 0 0 10
25 0 0 1000000000 0 0 7
26 0 0 1000000000 0 0 6
27 0 0 1000000000 0 0 9
28 0 0 1000000000 0 0 9
29 0 0 1000000000 0 0 10
30 0 0 1000000000 0 0 7
31 0 0 1000000000 0 7 0
32 0 0 1000000000 0 0 9
33 0 0 1000000000 0 0 10
34 0 0 1000000000 0 0 5
35 0 0 1000000000 0 0 6
36 0 0 1000000000 0 0 8
37 0 0 1000000000 0 0 10
38 0 0 1000000000 0 0 8
39 0 0 1000000000 0 0 5
40 0 0 1000000000 0 0 8
41 0 0 1000000000 0 10 0
42 0 0 1000000000 0 0 8
43 0 0 1000000000 0 0 10
44 0 0 1000000000 0 0 7
45 0 0 1000000000 0 0 5
46 0 0 1000000000 0 0 8
47 0 0 1000000000 0 0 9
48 0 0 1000000000 0 0 7
49 0 0 1000000000 0 0 10
50 0 0 1000000000 0 0 5
51 0 0 1000000000 0 6 0
52 0 0 1000000000 0 0 10
53 0 0 1000000000 0 0 9
54 0 0 1000000000 0 0 9
55 0 0 1000000000 0 0 10
56 0 0 1000000000 0 0 6
57 0 0 1000000000 0 0 8
58 0 0 1000000000 0 0 10
59 0 0 1000000000 0 0 9
60 0 0 1000000000 0 0 10
61 0 0 1000000000 0 9 0
62 0 0 1000000000 0 0 7
63 0 0 1000000000 0 0 5
64 0 0 1000000000 0 0 8
65 0 0 1000000000 0 0 10
66 0 0 1000000000 0 0 6
67 0 0 1000000000 0 0 9
68 0 0 1000000000 0 0 5
69 0 0 1000000000 0 0 7
70 0 0 1000000000 0 0 8
71 0 0 1000000000 0 8 0
72 0 0 1000000000 0 0 10
73 0 0 1000000000 0 0 10
74 0 0 1000000000 0 0 5
75 0 0 1000000000 0 0 8
76 0 0 1000000000 0 0 8
77 0 0 1000000000 0 0 8
78 0 0 1000000000 0 0 6
79 0 0 1000000000 0 0 10
80 0 0 1000000000 0 0 6
81 0 0 1000000000 0 9 0
82 0 0 1000000000 0 0 7
83 0 0 1000000000 0 0 9
84 0 0 1000000000 0 0 10
85 0 0 1000000000 0 0 6
86 0 0 1000000000 0 0 9
87 0 0 1000000000 0 0 6
88 0 0 1000000000 0 0 10
89 0 0 1000000000 0 0 5
90 0 0 1000000000 0 0 9
91 0 0 1000000000 0 8 0
92 0 0 1000000000 0 0 5
93 0 0 1000000000 0 0 5
94 0 0 1000000000 0 0 5
95 0 0 1000000000 0 0 10
96 0 0 1000000000 0 0 5
97 0 0 1000000000 0 0 8
98 0 0 1000000000 0 0 6
99 0 0 1000000000 0 0 6
100 0 0 1000000000 0 0 10
101 0 0 1000000000 0 6 0
102 0 0 1000000000 0 0 5
103 0 0 1000000000 0 0 10
104 0 0 1000000000 0 0 7
105 0 0 1000000000 0 0 9
106 0 0 1000000000 0 0 5
107 0 0 1000000000 0 0 8
108 0 0 1000000000 0 0 8
109 0 0 1000000000 0 0 6
110 0 0 1000000000 0 0 5
111 0 0 1000000000 0 6 0
112 0 0 1000000000 0 0 5
113 0 0 1000000000 0 0 6
114 0 0 1000000000 0 0 6
115 0 0 1000000000 0 0 7
116 0 0 1000000000 0 0 8
117 0 0 1000000000 0 0 6
118 0 0 1000000000 0 0 6
119 0 0 1000000000 0 0 10
120 0 0 1000000000 0 0 7
121 0 0 1000000000 0 10 0
122 0 0 1000000000 0 0 8
123 0 0 1000000000 0 0 7
124 0 0 1000000000 0 0 6
125 0 0 1000000000 0 0 7
126 0 0 1000000000 0 0 10
127 0 0 1000000000 0 0 9
128 0 0 1000000000 0 0 8
129 0 0 1000000000 0 0 8
130 0 0 1000000000 0 0 10
131 0 0 1000000000 0 10 0
132 0 0 1000000000 0 0 6
133 0 0 1000000000 0 0 10
134 0 0 1000000000 0 0 7
135 0 0 1000000000 0 0 6
136 0 0 1000000000 0 0 9
137 0 0 1000000000 0 0 8
138 0 0 1000000000 0 0 9
139 0 0 1000000000 0 0 6
140 0 0 1000000000 0 0 9
141 0 0 1000000000 0 10 0
142 0 0 1000000000 0 0 10
143 0 0 1000000000 0 0 7
144 0 0 1000000000 0 0 8
145 0 0 1000000000 0 0 6
146 0 0 1000000000 0 0 9
147 0 0 1000000000 0 0 7
148 0 0 1000000000 0 0 8
149 0 0 1000000000 0 0 7
150 0 0 1000000000 0 0 9
151 0 0 1000000000 0 9 0
152 0 0 1000000000 0 0 8
153 0 0 1000000000 0 0 6
154 0 0 1000000000 0 0 7
155 0 0 1000000000 0 0 8
156 0 0 1000000000 0 0 9
157 0 0 1000000000 0 0 7
158 0 0 1000000000 0 0 5
159 0 0 1000000000 0 0 7
160 0 0 1000000000 0 0 6
161 0 0 1000000000 0 6 0
162 0 0 1000000000 0 0 5
163 0 0 1000000000 0 0 6
164 0 0 1000000000 0 0 6
165 0 0 1000000000 0 0 10
166 0 0 1000000000 0 0 5
167 0 0 1000000000 0 0 5
168 0 0 1000000000 0 0 7
169 0 0 1000000000 0 0 7
170 0 0 1000000000 0 0 9
171 0 0 1000000000 0 10 0
172 0 0 1000000000 0 0 6
173 0 0 1000000000 0 0 10
174 0 0 1000000000 0 0 9
175 0 0 1000000000 0 0 6
176 0 0 1000000000 0 0 6
177 0 0 1000000000 0 0 9
178 0 0 1000000000 0 0 9
179 0 0 1000000000 0 0 6
180 0 0 1000000000 0 0 8
181 0 0 1000000000 0 5 0
182 0 0 1000000000 0 0 9
183 0 0 1000000000 0 0 8
184 0 0 1000000000 0 0 10
185 0 0 1000000000 0 0 5
186 0 0 1000000000 0 0 6
187 0 0 1000000000 0 0 6
188 0 0 1000000000 0 0 8
189 0 0 1000000000 0 0 7
190 0 0 1000000000 0 0 6
191 0 0 1000000000 0 9 0
192 0 0 1000000000 0 0 6
193 0 0 1000000000 0 0 7
194 0 0 1000000000 0 0 8
195 0 0 1000000000 0 0 6
196 0 0 1000000000 0 0 10
197 0 0 1000000000 0 0 9
198 0 0 1000000000 0 0 6
199 0 0 1000000000 0 0 7
200 0 0 1000000000 0 0 5
201 0 0 1000000000 0 6 0
202 0 0 1000000000 0 0 6
203 0 0 1000000000 0 0 10
204 0 0 1000000000 0 0 5
205 0 0 1000000000 0 0 9
206 0 0 1000000000 0 0 6
207 0 0 1000000000 0 0 8
208 0 0 1000000000 0 0 9
209 0 0 1000000000 0 0 10
210 0 0 1000000000 0 0 6
211 0 0 1000000000 0 10 0
212 0 0 1000000000 0 0 5
213 0 0 1000000000 0 0 10
214 0 0 1000000000 0 0 7
215 0 0 1000000000 0 0 6
216 0 0 1000000000 0 0 6
217 0 0 1000000000 0 0 6
218 0 0 1000000000 0 0 9
219 0 0 1000000000 0 0 10
220 0 0 1000000000 0 0 10
221 0 0 1000000000 0 6 0
222 0 0 1000000000 0 0 9
223 0 0 1000000000 0 0 6
224 0 0 1000000000 0 0 8
225 0 0 1000000000 0 0 6
226 0 0 1000000000 0 0 9
227 0 0 1000000000 0 0 7
228 0 0 1000000000 0 0 9
229 0 0 1000000000 0 0 5
230 0 0 1000000000 0 0 7
231 0 0 1000000000 0 10 0
232 0 0 1000000000 0 0 9
233 0 0 1000000000 0 0 10
234 0 0 1000000000 0 0 9
235 0 0 1000000000 0 0 7
236 0 0 1000000000 0 0 9
237 0 0 1000000000 0 0 10
238 0 0 1000000000 0 0 9
239 0 0 1000000000 0 0 5
240 0 0 1000000000 0 0 9
241 0 0 1000000000 0 9 0
242 0 0 1000000000 0 0 5
243 0 0 1000000000 0 0 10
244 0 0 1000000000 0 0 5
245 0 0 1000000000 0 0 7
246 0 0 1000000000 0 0 7
247 0 0 1000000000 0 0 7
248 0 0 1000000000 0 0 5
249 0 0 1000000000 0 0 5
250 0 0 1000000000 0 0 10
251 0 0 1000000000 0 10 0
252 0 0 1000000000 0 0 10
253 0 0 1000000000 0 0 5
254 0 0 1000000000 0 0 10
255 0 0 1000000000 0 0 10
256 0 0 1000000000 0 0 9
257 0 0 1000000000 0 0 9
258 0 0 1000000000 0 0 5
259 0 0 1000000000 0 0 10
260 0 0 1000000000 0 0 7
261 0 0 1000000000 0 6 0
262 0 0 1000000000 0 0 5
263 0 0 1000000000 0 0 6
264 0 0 1000000000 0 0 8
265 0 0 1000000000 0 0 9
266 0 0 1000000000 0 0 8
267 0 0 1000000000 0 0 9
268 0 0 1000000000 0 0 5
269 0 0 1000000000 0 0 6
270 0 0 1000000000 0 0 9
271 0 0 1000000000 0 9 0
272 0 0 1000000000 0 0 10
273 0 0 1000000000 0 0 6
274 0 0 1000000000 0 0 5
275 0 0 1000000000 0 0 7
276 0 0 1000000000 0 0 9
277 0 0 1000000000 0 0 6
278 0 0 1000000000 0 0 5
279 0 0 1000000000 0 0 10
280 0 0 1000000000 0 0 6
281 0 0 1000000000 0 7 0
282 0 0 1000000000 0 0 8
283 0 0 1000000000 0 0 6
284 0 0 1000000000 0 0 9
285 0 0 1000000000 0 0 9
286 0 0 1000000000 0 0 6
287 0 0 1000000000 0 0 8
288 0 0 1000000000 0 0 8
289 0 0 1000000000 0 0 10
290 0 0 1000000000 0 0 8
291 0 0 1000000000 0 6 0
292 0 0 1000000000 0 0 8
293 0 0 1000000000 0 0 10
294 0 0 1000000000 0 0 8
295 0 0 1000000000 0 0 7
296 0 0 1000000000 0 0 8
297 0 0 1000000000 0 0 8
298 0 0 1000000000 0 0 7
299 0 0 1000000000 0 0 5
300 0 0 1000000000 0 0 6
301 0 0 1000000000 0 10 0
302 0 0 1000000000 0 0 8
303 0 0 1000000000 0 0 5
304 0 0 1000000000 0 0 5
305 0 0 1000000000 0 0 7
306 0 0 1000000000 0 0 7
307 0 0 1000000000 0 0 9
308 0 0 1000000000 0 0 5
309 0 0 1000000000 0 0 9
310 0 0 1000000000 0 0 9
311 0 0 1000000000 0 8 0
312 0 0 1000000000 0 0 6
313 0 0 1000000000 0 0 6
314 0 0 1000000000 0 0 10
315 0 0 1000000000 0 0 6
316 0 0 1000000000 0 0 9
317 0 0 1000000000 0 0 8
318 0 0 1000000000 0 0 5
319 0 0 1000000000 0 0 10
320 0 0 1000000000 0 0 7
321 0 0 1000000000 0 10 0
322 0 0 1000000000 0 0 5
323 0 0 1000000000 0 0 7
324 0 0 1000000000 0 0 10
325 0 0 1000000000 0 0 8
326 0 0 1000000000 0 0 6
327 0 0 1000000000 0 0 5
328 0 0 1000000000 0 0 7
329 0 0 1000000000 0 0 8
330 0 0 1000000000 0 0 5
331 0 0 1000000000 0 10 0
332 0 0 1000000000 0 0 8
333 0 0 1000000000 0 0 8
334 0 0 1000000000 0 0 7
335 0 0 1000000000 0 0 5
336 0 0 1000000000 0 0 8
337 0 0 1000000000 0 0 6
338 0 0 1000000000 0 0 8
339 0 0 1000000000 0 0 5
340 0 0 1000000000 0 0 8
341 0 0 1000000000 0 7 0
342 0 0 1000000000 0 0 10
343 0 0 1000000000 0 0 6
344 0 0 1000000000 0 0 10
345 0 0 1000000000 0 0 9
346 0 0 1000000000 0 0 8
347 0 0 1000000000 0 0 7
348 0 0 1000000000 0 0 9
349 0 0 1000000000 0 0 6
350 0 0 1000000000 0 0 9
351 0 0 1000000000 0 9 0
352 0 0 1000000000 0 0 5
353 0 0 1000000000 0 0 8
354 0 0 1000000000 0 0 9
355 0 0 1000000000 0 0 9
356 0 0 1000000000 0 0 5
357 0 0 1000000000 0 0 9
358 0 0 1000000000 0 0 8
359 0 0 1000000000 0 0 10
360 0 0 1000000000 0 0 7
361 0 0 1000000000 0 9 0
362 0 0 1000000000 0 0 9
363 0 0 1000000000 0 0 7
364 0 0 1000000000 0 0 5
365 0 0 1000000000 0 0 9
366 0 0 1000000000 0 0 5
367 0 0 1000000000 0 0 7
368 0 0 1000000000 0 0 7
369 0 0 1000000000 0 0 10
370 0 0 1000000000 0 0 9
371 0 0 1000000000 0 9 0
372 0 0 1000000000 0 0 6
373 0 0 1000000000 0 0 5
374 0 0 1000000000 0 0 9
375 0 0 1000000000 0 0 7
376 0 0 1000000000 0 0 9
377 0 0 1000000000 0 0 5
378 0 0 1000000000 0 0 8
379 0 0 1000000000 0 0 10
380 0 0 1000000000 0 0 5
381 0 0 1000000000 0 6 0
382 0 0 1000000000 0 0 9
383 0 0 1000000000 0 0 9
384 0 0 1000000000 0 0 7
385 0 0 1000000000 0 0 10
386 0 0 1000000000 0 0 6
387 0 0 1000000000 0 0 8
388 0 0 1000000000 0 0 9
389 0 0 1000000000 0 0 5
390 0 0 1000000000 0 0 5
391 0 0 1000000000 0 10 0
392 0 0 1000000000 0 0 8
393 0 0 1000000000 0 0 10
394 0 0 1000000000 0 0 5
395 0 0 1000000000 0 0 10
396 0 0 1000000000 0 0 5
397 0 0 1000000000 0 0 5
398 0 0 1000000000 0 0 9
399 0 0 1000000000 0 0 9
400 0 0 1000000000 0 0 10
401 0 0 1000000000 0 7 0
402 0 0 1000000000 0 0 10
403 0 0 1000000000 0 0 6
404 0 0 1000000000 0 0 6
405 0 0 1000000000 0 0 10
406 0 0 1000000000 0 0 5
407 0 0 1000000000 0 0 5
408 0 0 1000000000 0 0 6
409 0 0 1000000000 0 0 10
410 0 0 1000000000 0 0 10
411 0 0 1000000000 0 10 0
412 0 0 1000000000 0 0 10
413 0 0 1000000000 0 0 5
414 0 0 1000000000 0 0 8
415 0 0 1000000000 0 0 9
416 0 0 1000000000 0 0 9
417 0 0 1000000000 0 0 6
418 0 0 1000000000 0 0 8
419 0 0 1000000000 0 0 7
420 0 0 1000000000 0 0 7
421 0 0 1000000000 0 10 0
422 0 0 1000000000 0 0 10
423 0 0 1000000000 0 0 9
424 0 0 1000000000 0 0 7
425 0 0 1000000000 0 0 7
426 0 0 1000000000 0 0 5
427 0 0 1000000000 0 0 8
428 0 0 1000000000 0 0 8
429 0 0 1000000000 0 0 5
430 0 0 1000000000 0 0 9
431 0 0 1000000000 0 6 0
432 0 0 1000000000 0 0 5
433 0 0 1000000000 0 0 9
434 0 0 1000000000 0 0 9
435 0 0 1000000000 0 0 7
436 0 0 1000000000 0 0 8
437 0 0 1000000000 0 0 8
438 0 0 1000000000 0 0 10
439 0 0 1000000000 0 0 5
440 0 0 1000000000 0 0 7
441 0 0 1000000000 0 7 0
442 0 0 1000000000 0 0 6
443 0 0 1000000000 0 0 9
444 0 0 1000000000 0 0 7
445 0 0 1000000000 0 0 6
446 0 0 1000000000 0 0 8
447 0 0 1000000000 0 0 9
448 0 0 1000000000 0 0 10
449 0 0 1000000000 0 0 6
450 0 0 1000000000 0 0 9
451 0 0 1000000000 0 5 0
452 0 0 1000000000 0 0 5
453 0 0 1000000000 0 0 10
454 0 0 1000000000 0 0 9
455 0 0 1000000000 0 0 6
456 0 0 1000000000 0 0 8
457 0 0 1000000000 0 0 5
458 0 0 1000000000 0 0 9
459 0 0 1000000000 0 0 9
460 0 0 1000000000 0 0 9
461 0 0 1000000000 0 5 0
462 0 0 1000000000 0 0 9
463 0 0 1000000000 0 0 6
464 0 0 1000000000 0 0 6
465 0 0 1000000000 0 0 9
466 0 0 1000000000 0 0 6
467 0 0 1000000000 0 0 5
468 0 0 1000000000 0 0 9
469 0 0 1000000000 0 0 9
470 0 0 1000000000 0 0 10
471 0 0 1000000000 0 5 0
472 0 0 1000000000 0 0 9
473 0 0 1000000000 0 0 9
474 0 0 1000000000 0 0 8
475 0 0 1000000000 0 0 9
476 0 0 1000000000 0 0 8
477 0 0 1000000000 0 0 6
478 0 0 1000000000 0 0 5
479 0 0 1000000000 0 0 5
480 0 0 1000000000 0 0 7
481 0 0 1000000000 0 6 0
482 0 0 1000000000 0 0 7
483 0 0 1000000000 0 0 6
484 0 0 1000000000 0 0 5
485 0 0 1000000000 0 0 8
486 0 0 1000000000 0 0 9
487 0 0 1000000000 0 0 6
488 0 0 1000000000 0 0 9
489 0 0 1000000000 0 0 10
490 0 0 1000000000 0 0 10
491 0 0 1000000000 0 9 0
492 0 0 1000000000 0 0 10
493 0 0 1000000000 0 0 9
494 0 0 1000000000 0 0 10
495 0 0 1000000000 0 0 10
496 0 0 1000000000 0 0 6
497 0 0 1000000000 0 0 10
498 0 0 1000000000 0 0 7
499 0 0 1000000000 0 0 5
500 0 0 1000000000 0 0 7
501 0 0 1000000000 0 9 0
502 0 0 1000000000 0 0 7
503 0 0 1000000000 0 0 10
504 0 0 1000000000 0 0 10
505 0 0 1000000000 0 0 9
506 0 0 1000000000 0 0 10
507 0 0 1000000000 0 0 6
508 0 0 1000000000 0 0 9
509 0 0 1000000000 0 0 9
510 0 0 1000000000 0 0 8
511 0 0 1000000000 0 5 0
512 0 0 1000000000 0 0 6
513 0 0 1000000000 0 0 5
514 0 0 1000000000 0 0 9
515 0 0 1000000000 0 0 10
516 0 0 1000000000 0 0 6
517 0 0 1000000000 0 0 7
518 0 0 1000000000 0 0 7
519 0 0 1000000000 0 0 7
520 0 0 1000000000 0 0 7
521 0 0 1000000000 0 6 0
522 0 0 1000000000 0 0 7
523 0 0 1000000000 0 0 9
524 0 0 1000000000 0 0 10
525 0 0 1000000000 0 0 8
526 0 0 1000000000 0 0 9
527 0 0 1000000000 0 0 9
528 0 0 1000000000 0 0 8
529 0 0 1000000000 0 0 9
530 0 0 1000000000 0 0 5
531 0 0 1000000000 0 9 0
532 0 0 1000000000 0 0 6
533 0 0 1000000000 0 0 6
534 0 0 1000000000 0 0 9
535 0 0 1000000000 0 0 6
536 0 0 1000000000 0 0 8
537 0 0 1000000000 0 0 8
538 0 0 1000000000 0 0 5
539 0 0 1000000000 0 0 8
540 0 0 1000000000 0 0 5
541 0 0 1000000000 0 6 0
542 0 0 1000000000 0 0 7
543 0 0 1000000000 0 0 5
544 0 0 1000000000 0 0 9
545 0 0 1000000000 0 0 10
546 0 0 1000000000 0 0 7
547 0 0 1000000000 0 0 8
548 0 0 1000000000 0 0 5
549 0 0 1000000000 0 0 10
550 0 0 1000000000 0 0 6
551 0 0 1000000000 0 7 0
552 0 0 1000000000 0 0 8
553 0 0 1000000000 0 0 9
554 0 0 1000000000 0 0 5
555 0 0 1000000000 0 0 6
556 0 0 1000000000 0 0 6
557 0 0 1000000000 0 0 6
558 0 0 1000000000 0 0 8
559 0 0 1000000000 0 0 8
560 0 0 1000000000 0 0 5
561 0 0 1000000000 0 9 0
562 0 0 1000000000 0 0 5
563 0 0 1000000000 0 0 8
564 0 0 1000000000 0 0 5
565 0 0 1000000000 0 0 9
566 0 0 1000000000 0 0 7
567 0 0 1000000000 0 0 10
568 0 0 1000000000 0 0 6
569 0 0 1000000000 0 0 7
570 0 0 1000000000 0 0 10
571 0 0 1000000000 0 9 0
572 0 0 1000000000 0 0 8
573 0 0 1000000000 0 0 5
574 0 0 1000000000 0 0 10
575 0 0 1000000000 0 0 5
576 0 0 1000000000 0 0 8
577 0 0 1000000000 0 0 8
578 0 0 1000000000 0 0 7
579 0 0 1000000000 0 0 7
580 0 0 1000000000 0 0 7
581 0 0 1000000000 0 9 0
582 0 0 1000000000 0 0 8
583 0 0 1000000000 0 0 6
584 0 0 1000000000 0 0 8
585 0 0 1000000000 0 0 8
586 0 0 1000000000 0 0 5
